pair_coeff 1 1 lj/cut 1.650043365134432 2.5823686553873553
pair_coeff 1 2 lj/cut 0.03885610421199274 2.9869991944764815
pair_coeff 1 3 lj/cut 0.029907012628217086 2.796138640802775
pair_coeff 1 4 lj/cut 0.013374822648127612 1.4386014622799208
pair_coeff 1 5 lj/cut 0.04144037229974082 2.796138640802775
pair_coeff 1 6 lj/cut 0.07844535870202286 3.0441900754851265
pair_coeff 2 2 lj/cut 0.0009150043365134433 3.4550311665182547
pair_coeff 2 3 lj/cut 0.0007042663386345064 3.2342647322249363
pair_coeff 2 4 lj/cut 0.00031495748149032855 1.6640154766586754
pair_coeff 2 5 lj/cut 0.0009758600644603786 3.2342647322249363
pair_coeff 2 6 lj/cut 0.001847273288132412 3.5211832688324756
pair_coeff 3 3 lj/cut 0.0005420641803989593 3.0276046304541406
pair_coeff 3 4 lj/cut 0.0002424184711079564 1.5576897314813805
pair_coeff 3 5 lj/cut 0.0007511061611313432 3.0276046304541406
pair_coeff 3 6 lj/cut 0.00142182101567693 3.296189907763375
pair_coeff 4 4 lj/cut 0.00010841283607979186 0.8014247551202137
pair_coeff 4 5 lj/cut 0.00033590488692171873 1.5576897314813805
pair_coeff 4 6 lj/cut 0.0006358576885782819 1.6958757166273066
pair_coeff 5 5 lj/cut 0.0010407632263660018 3.0276046304541406
pair_coeff 5 6 lj/cut 0.0019701329907373024 3.296189907763375
pair_coeff 6 6 lj/cut 0.0037294015611448396 3.5886019590382907
