pair_coeff 1 1 lj/cut/coul/cut 1.6497398091934086 2.5823686553873553
pair_coeff 1 2 lj/cut/coul/cut 0.07770505979743737 2.9869991944764815
pair_coeff 1 3 lj/cut/coul/cut 0.05980852305623206 2.796138640802775
pair_coeff 1 4 lj/cut/coul/cut 0.026747184637519673 1.4386014622799208
pair_coeff 1 5 lj/cut/coul/cut 0.08287312052723884 2.796138640802775
pair_coeff 1 6 lj/cut/coul/cut 0.15687628526821623 3.0441900754851265
pair_coeff 2 2 lj/cut/coul/cut 0.003660017346053773 3.4550311665182547
pair_coeff 2 3 lj/cut/coul/cut 0.0028170653545380258 3.2342647322249363
pair_coeff 2 4 lj/cut/coul/cut 0.0012598299259613142 1.6640154766586754
pair_coeff 2 5 lj/cut/coul/cut 0.0039034402578415144 3.2342647322249363
pair_coeff 2 6 lj/cut/coul/cut 0.007389093152529648 3.5211832688324756
pair_coeff 3 3 lj/cut/coul/cut 0.0021682567215958373 3.0276046304541406
pair_coeff 3 4 lj/cut/coul/cut 0.0009696738844318256 1.5576897314813805
pair_coeff 3 5 lj/cut/coul/cut 0.0030044246445253726 3.0276046304541406
pair_coeff 3 6 lj/cut/coul/cut 0.00568728406270772 3.296189907763375
pair_coeff 4 4 lj/cut/coul/cut 0.00043365134431916743 0.8014247551202137
pair_coeff 4 5 lj/cut/coul/cut 0.001343619547686875 1.5576897314813805
pair_coeff 4 6 lj/cut/coul/cut 0.0025434307543131278 1.6958757166273066
pair_coeff 5 5 lj/cut/coul/cut 0.004163052905464007 3.0276046304541406
pair_coeff 5 6 lj/cut/coul/cut 0.00788053196294921 3.296189907763375
pair_coeff 6 6 lj/cut/coul/cut 0.014917606244579358 3.5886019590382907
