pair_coeff 1 1 38.05 2.5823686553873553
pair_coeff 2 2 0.0211 3.4550311665182547
pair_coeff 3 3 0.0125 3.0276046304541406
pair_coeff 4 4 0.0025 0.8014247551202137
pair_coeff 5 5 0.024 3.0276046304541406
pair_coeff 6 6 0.086 3.5886019590382907
