pair_coeff 1 1 1.650043365134432 2.5823686553873553
pair_coeff 2 2 0.0009150043365134433 3.4550311665182547
pair_coeff 3 3 0.0005420641803989593 3.0276046304541406
pair_coeff 4 4 0.00010841283607979186 0.8014247551202137
pair_coeff 5 5 0.0010407632263660018 3.0276046304541406
pair_coeff 6 6 0.0037294015611448396 3.5886019590382907
