pair_coeff 1 1 lj/cut 0.0373 3.261
pair_coeff 1 2 lj/cut 0.02979496601776884 2.9160000000000004
pair_coeff 2 1 lj/cut 0.02979496601776884 2.9160000000000004
pair_coeff 2 2 lj/cut 0.0238 2.571
